p edge 100 488
1 77
1 2
1 94
1 6
1 39
2 38
2 11
2 78
2 48
2 3
3 44
3 25
3 4
3 74
3 75
4 51
4 41
4 5
4 10
5 56
5 91
5 45
5 6
5 36
6 34
6 91
6 50
6 7
6 45
7 12
7 8
7 88
7 15
7 97
8 76
8 88
8 9
8 40
8 21
9 52
9 48
9 41
9 10
9 79
10 62
10 11
10 8
10 22
11 92
11 50
11 80
11 12
11 20
12 46
12 13
12 65
12 61
12 50
13 30
13 56
13 14
13 62
13 12
14 66
14 71
14 82
14 15
14 26
15 56
15 7
15 47
15 65
15 16
16 17
16 70
16 24
16 85
17 30
17 18
17 36
17 38
17 56
18 19
18 22
18 55
18 53
18 81
19 31
19 73
19 20
19 90
19 81
20 27
20 64
20 40
20 21
20 25
21 22
21 83
21 35
21 16
21 78
22 23
22 47
22 61
22 83
22 41
23 84
23 24
23 21
23 31
23 15
24 64
24 34
24 39
24 14
24 25
25 45
25 26
25 9
25 69
25 93
26 53
26 71
26 27
26 67
26 5
27 54
27 58
27 39
27 28
27 1
28 90
28 29
28 98
28 11
29 43
29 84
29 30
29 35
29 40
30 91
30 16
30 56
30 84
30 31
31 36
31 12
31 32
31 55
32 57
32 13
32 67
32 33
32 36
33 23
33 43
33 60
33 34
33 17
34 89
34 4
34 55
34 29
34 35
35 78
35 92
35 81
35 36
36 43
36 11
36 8
36 96
36 37
37 34
37 79
37 38
37 12
37 67
38 99
38 11
38 84
38 7
38 39
39 85
39 40
39 58
39 86
39 70
40 21
40 85
40 91
40 87
40 41
41 42
41 49
41 33
41 92
41 96
42 68
42 43
42 49
42 24
42 85
43 94
43 44
43 37
43 53
43 36
44 49
44 98
44 45
44 40
44 16
45 46
45 20
45 49
45 68
45 13
46 95
46 21
46 47
46 1
47 90
47 6
47 48
47 84
47 38
48 14
48 30
48 49
48 39
48 38
49 50
49 72
49 3
49 64
49 90
50 54
50 23
50 51
50 70
50 68
51 52
51 66
51 75
51 77
51 24
52 40
52 29
52 44
52 53
52 70
53 33
53 39
53 98
53 2
53 54
54 77
54 61
54 26
54 55
54 46
55 54
55 98
55 74
55 83
55 56
56 75
56 57
56 80
56 33
56 48
57 58
57 42
57 18
57 12
57 3
58 66
58 59
58 63
58 39
59 66
59 18
59 54
59 86
59 60
60 61
60 40
60 49
60 88
60 42
61 60
61 68
61 95
61 22
61 62
62 50
62 63
62 79
62 96
62 27
63 64
63 96
63 25
63 41
63 54
64 44
64 27
64 61
64 65
64 80
65 77
65 7
65 94
65 66
65 61
66 7
66 57
66 89
66 67
66 36
67 2
67 12
67 34
67 68
67 14
68 43
68 49
68 59
68 69
68 36
69 70
69 43
69 47
69 71
69 64
70 71
70 76
70 61
70 57
71 10
71 82
71 72
71 65
71 45
72 67
72 49
72 29
72 73
72 3
73 6
73 9
73 12
73 74
73 56
74 75
74 44
74 15
74 2
74 86
75 89
75 76
75 59
75 80
75 62
76 15
76 43
76 73
76 12
76 77
77 78
77 16
77 70
77 82
77 11
78 53
78 95
78 79
78 62
78 14
79 42
79 30
79 77
79 22
79 80
80 27
80 33
80 84
80 81
80 97
81 82
81 90
81 26
81 10
81 60
82 18
82 11
82 60
82 40
82 83
83 1
83 90
83 84
83 2
84 3
84 20
84 85
84 47
84 64
85 58
85 78
85 91
85 86
85 76
86 45
86 87
86 32
86 65
86 68
87 24
87 77
87 88
87 64
87 94
88 67
88 25
88 46
88 42
88 89
89 11
89 17
89 90
89 49
89 84
90 48
90 73
90 63
90 91
90 10
91 20
91 84
91 39
91 97
91 92
92 9
92 93
92 90
92 37
92 38
93 78
93 31
93 94
93 10
93 38
94 58
94 95
94 39
94 54
94 56
95 11
95 10
95 100
95 96
95 31
96 6
96 60
96 97
96 77
97 96
97 98
97 63
97 61
97 100
98 79
98 26
98 99
98 51
99 29
99 21
99 4
99 100
99 16
100 97
100 1
100 33
100 63
100 13
